c --- [ banner ] -------------------------------------------------------------
c 
c CaDiCaL Radically Simplified CDCL SAT Solver
c Copyright (c) 2016-2021 A. Biere, M. Fleury, N. Froleyks
c 
c Version 1.5.2 ca2dd1661408261d5d9922f656c807ded88978da
c g++ (Ubuntu 7.5.0-3ubuntu1~18.04) 7.5.0 -Wall -Wextra -O3 -DNDEBUG
c Sat Feb 26 22:54:12 EST 2022 Linux fac-vanhoeve01 5.4.0-99-generic x86_64
c 
c --- [ parsing input ] ------------------------------------------------------
c 
c reading DIMACS file from '<stdin>' (use '-h' for a list of common options)
c found 'p cnf 2692 7976' header
c parsed 7976 clauses in 0.00 seconds process time
c disconnecting from '<stdin>'
c after reading 106558 bytes 0.1 MB
c 
c --- [ options ] ------------------------------------------------------------
c 
c all options are set to their default value
c 
c --- [ solving ] ------------------------------------------------------------
c 
c time measured in process time since initialization
c 
c  seconds  reductions  redundant irredundant
c         MB    restarts       trail    variables
c          level   conflicts       glue      remaining
c 
c *  0.00  5  0 0   0    0    0  0% 0 7974 2618 97%
c {  0.01  5  0 0   0    0    0  0% 0 7974 2618 97%
c -  0.02  5 85 1  37  300  286 78% 9 7902 2618 97%
c -  0.06  5 41 2  80  900  713 86% 9 7902 2618 97%
c }  0.07  5 39 2  80 1000  798 86% 9 7902 2618 97%
c [  0.07  5  0 2  80 1000  798  0% 0 7902 2618 97%
c O  0.07  5 13 2  80 1004  801 92% 5 7902 2618 97%
c -  0.11  6 17 3  80 1800  913 92% 14 7902 2618 97%
c ]  0.18  6 20 3  81 3000 1822 92% 15 7902 2618 97%
c {  0.18  6 39 3  81 3000 1822 86% 9 7902 2618 97%
c -  0.19  6 39 4  81 3000 1326 86% 9 7902 2618 97%
c F  0.19  6 39 4  81 3010 1335 86% 9 7902 2618 97%
c s  0.20  6 36 4  98 3216 1524 87% 10 7902 2618 97%
c e  0.23  6 36 4  98 3216   67 87% 10 5686 885 33%
c s  0.23  6 36 4  98 3216   60 87% 10 5686 885 33%
c -  0.29  6 27 5 166 4500 1186 76% 10 5686 885 33%
c p  0.32  6 24 5 166 5001 1626 73% 10 5686 885 33%
c #  0.36  6 23 5 211 6012 2564 74% 9 5686 885 33%
c -  0.38  6 23 6 253 6302 2214 74% 9 5686 885 33%
c }  0.41  6 22 6 327 7001 2863 76% 10 5686 885 33%
c 
c  seconds  reductions  redundant   irredundant
c         MB    restarts       trail      variables
c          level   conflicts        glue      remaining
c 
c [  0.41  6 20 6 327 7001 2863 280% 15 5686 885 33%
c -  0.47  6 22 7 328 8402 2840 200% 14 5686 885 33%
c I  0.55  6 22 7 329 10014 4289 163% 14 5686 885 33%
c -  0.59  7 23 8 330 10802 3237 148% 14 5686 885 33%
c -  0.73  7 24 9 332 13502 3533 120% 15 5686 885 33%
c s  0.76  7 23 9 332 13952 3913 118% 15 5686 885 33%
c w  0.77  7 23 9 332 13952 3913 118% 15 5686 885 33%
c s  0.78  7 23 9 332 13952 3912 118% 15 5686 885 33%
c ^  0.78  7 23 9 332 13952 3912 118% 15 5686 885 33%
c ]  0.84  7 23 9 332 15002 4802 114% 15 5686 885 33%
c {  0.84  7 22 9 332 15002 4802 76% 10 5686 885 33%
c p  0.85  7 22 9 332 15002 4812 76% 10 5686 885 33%
c B  0.85  7 23 9 333 15016 4826 76% 10 5686 885 33%
c -  0.92  7 22 10 390 16503 4004 76% 10 5686 885 33%
c -  1.08  7 21 11 692 19805 4549 78% 10 5686 885 33%
c W  1.15  7 20 11 772 21018 5633 79% 10 5686 885 33%
c -  1.27  7 21 12 1029 23406 5361 80% 10 5686 885 33%
c -  1.46  7 20 13 1194 27306 5745 80% 10 5686 885 33%
c F  1.50  7 19 13 1194 28019 6372 80% 10 5686 885 33%
c p  1.59  7 19 13 1327 30004 8220 80% 10 5686 885 33%
c 
c  seconds  reductions     redundant  irredundant
c         MB     restarts         trail     variables
c          level      conflicts       glue      remaining
c 
c s  1.61  7 19 13 1327 30057 8256 80% 10 5686 885 33%
c s  1.64  7 19 13 1327 30057 8252 80% 10 5686 885 33%
c ^  1.64  7 19 13 1327 30057 8252 80% 10 5686 885 33%
c }  1.68  7 19 13 1358 31005 8976 81% 10 5686 885 33%
c [  1.68  7 23 13 1358 31005 8976 114% 15 5686 885 33%
c -  1.71  7 23 14 1358 31506 6242 113% 15 5686 885 33%
c -  1.94  6 21 15 1361 36006 5704 105% 14 5686 885 33%
c B  1.94  6 21 15 1361 36021 5719 105% 14 5686 885 33%
c -  2.22  7 26 16 1364 40808 6568 98% 15 5686 885 33%
c W  2.52  7 26 16 1365 45022 10421 96% 16 5686 885 33%
c -  2.59  8 26 17 1365 45908 7336 96% 16 5686 885 33%
c p  2.89  8 26 17 1366 50004 10861 95% 17 5686 885 33%
c -  2.98  8 26 18 1366 51308 7704 94% 17 5686 885 33%
c s  3.00  8 26 18 1366 51528 7892 94% 17 5686 885 33%
c v  3.00  8 26 18 1366 51528 7892 94% 17 5686 885 33%
c s  3.02  8 26 18 1366 51528 7890 94% 17 5686 885 33%
c ^  3.02  8 26 18 1366 51528 7890 94% 17 5686 885 33%
c O  3.25  8 26 18 1367 55024 10563 94% 17 5686 885 33%
c -  3.36  8 26 19 1369 57009 7502 93% 17 5686 885 33%
c ]  3.69  8 25 19 1373 63011 11864 92% 17 5686 885 33%
c 
c  seconds  reductions      redundant  irredundant
c         MB     restarts          trail     variables
c          level      conflicts        glue      remaining
c 
c {  3.69  8 19 19 1373 63011 11864 81% 10 5686 885 33%
c -  3.69  8 19 20 1373 63011 7273 81% 10 5686 885 33%
c B  3.86  8 19 20 1648 66025 10079 81% 10 5686 885 33%
c -  4.04  9 19 21 1966 69312 8819 81% 10 5686 885 33%
c p  4.35  9 19 21 2367 75004 14064 82% 10 5686 885 33%
c -  4.41  9 19 22 2418 75912 10125 82% 10 5686 885 33%
c W  4.54  9 19 22 2566 78026 12038 82% 10 5686 885 33%
c s  4.58  9 19 22 2566 78365 12342 82% 10 5686 885 33%
c w  4.60  9 19 22 2566 78365 12342 82% 10 5686 885 33%
c s  4.62  9 19 22 2566 78365 12341 82% 10 5686 885 33%
c ^  4.62  9 19 22 2566 78365 12341 82% 10 5686 885 33%
c -  4.88  9 19 23 2824 82813 11092 81% 10 5686 885 33%
c -  5.29  9 19 24 3243 90015 11524 82% 10 5686 885 33%
c #  5.35  9 19 24 3293 91028 12438 82% 10 5686 885 33%
c -  5.70  9 19 25 3540 97518 11841 82% 10 5686 885 33%
c p  6.16  9 19 25 3997 105004 18531 82% 10 5686 885 33%
c B  6.16  9 19 25 3997 105029 18556 82% 10 5686 885 33%
c -  6.19  9 19 26 4015 105321 12717 82% 10 5686 885 33%
c s  6.49  9 19 26 4245 110569 17387 82% 10 5686 885 33%
c e  6.53 10 19 26 4245 110569 4269 82% 10 8122 567 21%
c 
c  seconds  reductions      redundant  irredundant
c         MB     restarts          trail     variables
c          level      conflicts        glue      remaining
c 
c s  6.54 10 19 26 4245 110569 4269 82% 10 8122 567 21%
c ^  6.54 10 19 26 4245 110569 4269 82% 10 8122 567 21%
c -  6.69 10 19 27 4329 113422 5346 86% 10 8122 567 21%
c W  7.08 10 19 27 4662 120030 11526 84% 10 8122 567 21%
c -  7.18 11 19 28 4750 121824 10426 83% 10 8122 567 21%
c }  7.45 11 19 28 5030 127011 15101 83% 10 8122 567 21%
c [  7.45 11 25 28 5030 127011 15101 144% 17 8122 567 21%
c -  7.65 10 25 29 5030 130524 12410 138% 17 8122 567 21%
c B  7.95 10 24 29 5035 136031 17056 131% 17 8122 567 21%
c -  8.17 11 26 30 5037 139524 12947 127% 17 8122 567 21%
c p  8.20 11 26 30 5037 140007 13429 127% 17 8122 567 21%
c -  8.75 10 27 31 5038 148825 12489 120% 18 8122 567 21%
c W  9.06 10 27 31 5039 153035 15956 117% 18 8122 567 21%
c -  9.41 11 30 32 5039 158425 13520 114% 19 8122 567 21%
c s  9.85 11 33 32 5039 164338 19045 111% 20 8122 567 21%
c w  9.88 11 33 32 5039 164338 19044 111% 20 8122 567 21%
c s  9.91 11 33 32 5039 164338 19043 111% 20 8122 567 21%
c - 10.28 12 34 33 5040 168328 14685 110% 21 8122 567 21%
c I 10.49 12 34 33 5042 171036 17087 108% 21 8122 567 21%
c - 11.00 12 34 34 5046 178528 14966 106% 21 8122 567 21%
c 
c  seconds  reductions       redundant   irredundant
c         MB     restarts           trail      variables
c          level      conflicts          glue      remaining
c 
c p 11.12 12 34 34 5046 180007 16270 106% 21 8122 567 21%
c - 11.80 10 32 35 5053 189028 14512 103% 20 8122 567 21%
c B 11.87 10 32 35 5053 190037 15380 103% 20 8122 567 21%
c - 12.52 12 32 36 5054 199828 15362 101% 20 8122 567 21%
c W 13.44 12 31 36 5061 210038 24261 99% 20 8122 567 21%
c - 13.54 14 31 37 5061 210929 15726 99% 20 8122 567 21%
c - 14.41 14 30 38 5068 222329 14118 97% 19 8122 567 21%
c p 14.61 14 29 38 5068 225008 15863 97% 19 8122 567 21%
c O 15.01 14 29 38 5069 231040 20117 96% 19 8122 567 21%
c - 15.22 14 28 39 5069 234029 14432 95% 19 8122 567 21%
c - 16.05 14 27 40 5070 246029 14303 94% 18 8122 567 21%
c B 16.52 14 26 40 5071 253041 18966 93% 18 8122 567 21%
c ] 16.65 14 26 40 5071 255011 20743 93% 18 8122 567 21%
c { 16.65 14 19 40 5071 255011 20743 83% 10 8122 567 21%
c - 16.88 14 19 41 5306 258331 16280 83% 10 8122 567 21%
c - 17.61 14 18 42 6135 270933 18068 82% 10 8122 567 21%
c p 17.87 14 18 42 6431 275009 21694 82% 10 8122 567 21%
c F 17.95 14 18 42 6590 276042 22673 82% 10 8122 567 21%
c - 18.43 14 18 43 7080 283833 19978 82% 10 8122 567 21%
c - 19.24 14 18 44 7858 297033 21191 81% 10 8122 567 21%
c 
c  seconds  reductions       redundant  irredundant
c         MB     restarts           trail     variables
c          level      conflicts         glue      remaining
c 
c B 19.42 14 18 44 8092 300044 23983 81% 10 8122 567 21%
c - 20.03 15 18 45 8607 310533 21731 78% 10 8122 567 21%
c - 20.90 15 18 46 9416 324335 22723 79% 10 8122 567 21%
c W 21.03 15 18 46 9446 325047 23367 79% 10 8122 567 21%
c p 21.41 15 18 46 9982 330011 28043 80% 10 8122 565 21%
c s 21.46 15 18 46 9982 330011 27967 80% 10 8122 565 21%
c v 21.50 15 18 46 9982 330011 27967 80% 10 8106 565 21%
c w 21.53 15 18 46 9982 330011 27954 80% 10 8106 565 21%
c s 21.58 15 18 46 9982 330011 27951 80% 10 8096 565 21%
c - 22.23 15 18 47 10617 338435 24466 80% 10 8096 565 21%
c # 23.17 15 18 47 11618 351051 35881 80% 10 8096 565 21%
c - 23.32 16 18 48 11690 352837 25015 80% 10 8096 565 21%
c - 24.39 16 18 49 12934 367538 25635 80% 10 8096 565 21%
c B 25.20 16 18 49 14045 378053 35264 81% 10 8096 565 21%
c - 25.58 16 18 50 14426 382538 26490 81% 10 8096 565 21%
c p 26.15 16 18 50 14892 390012 33262 81% 10 8096 565 21%
c - 26.68 18 18 51 15075 397839 27155 80% 10 8096 565 21%
c s 26.84 18 18 51 15163 399148 28277 80% 10 8096 565 21%
c w 26.89 18 18 51 15163 399148 28269 80% 10 8096 565 21%
c s 26.95 18 18 51 15163 399148 28262 80% 10 8096 565 21%
c 
c  seconds  reductions        redundant  irredundant
c         MB      restarts           trail     variables
c          level       conflicts         glue      remaining
c 
c W 27.65 18 18 51 15821 406054 34372 80% 10 8096 565 21%
c - 28.39 16 18 52 16663 413440 29394 80% 10 8096 565 21%
c - 29.80 18 18 53 18030 429340 29298 80% 10 8096 565 21%
c F 30.25 18 18 53 18380 435055 34135 80% 10 8096 565 21%
c - 31.20 16 18 54 19333 445543 29646 79% 10 8096 565 21%
c p 32.01 16 18 54 19966 455012 37985 79% 10 8096 561 21%
c - 32.73 18 18 55 20597 462043 30652 79% 10 8076 561 21%
c B 32.97 18 17 55 20730 465056 33128 79% 10 8076 561 21%
c s 34.08 18 18 55 21973 475967 43047 79% 10 8038 561 21%
c v 34.11 18 18 55 21973 475967 43047 79% 10 8038 561 21%
c w 34.15 18 18 55 21973 475967 43044 79% 10 8038 561 21%
c s 34.23 18 18 55 21973 475967 43035 79% 10 8038 561 21%
c - 34.58 16 18 56 22350 478844 31994 79% 10 8038 561 21%
c - 36.03 19 18 57 23598 495945 32414 80% 10 8038 561 21%
c W 36.17 19 18 57 23602 496059 32511 80% 10 8038 561 21%
c } 37.46 19 18 57 24867 511013 45856 80% 10 8038 561 21%
c [ 37.46 19 26 57 24867 511013 45856 93% 18 8038 561 21%
c - 37.63 16 26 58 24867 513347 32790 93% 18 8038 561 21%
c p 38.52 16 25 58 24867 525013 42874 92% 18 8038 561 21%
c W 38.93 16 26 58 24867 528064 45723 92% 18 8038 561 21%
c 
c  seconds  reductions        redundant  irredundant
c         MB      restarts           trail     variables
c          level       conflicts         glue      remaining
c 
c - 39.16 19 26 59 24867 531047 32731 92% 18 8038 561 21%
c - 40.64 16 25 60 24874 549051 30531 91% 18 8038 561 21%
c I 41.74 16 25 60 24880 561067 40810 91% 18 8038 561 21%
c - 42.34 19 25 61 24882 567352 30866 90% 17 8038 561 21%
c - 43.96 16 24 62 24889 585952 30702 90% 17 8038 561 21%
c B 44.74 16 24 62 24896 595068 38480 90% 17 8038 561 21%
c p 45.16 16 25 62 24897 600014 43145 90% 17 8038 561 21%
c - 45.57 19 25 63 24897 604853 31428 89% 17 8038 561 21%
c - 47.23 16 25 64 24899 624054 31519 89% 18 8038 561 21%
c W 47.86 16 25 64 24904 630069 36216 89% 18 8038 561 21%
c - 49.27 18 25 65 24911 643555 29809 89% 18 8038 561 21%
c - 51.07 18 25 66 24919 663355 30777 89% 18 8038 561 21%
c O 51.32 18 25 66 24920 666071 33042 89% 18 8038 561 21%
c p 52.58 18 24 66 24927 680014 42688 88% 18 8038 561 21%
c - 52.90 18 24 67 24928 683455 29089 88% 18 8038 561 21%
c B 54.57 18 23 67 24929 703074 42261 88% 17 8038 561 21%
c - 54.66 18 23 68 24929 703857 29301 88% 17 8038 561 21%
c - 56.34 18 23 69 24930 724557 31867 88% 17 8038 561 21%
c W 58.02 18 24 69 24931 741076 46165 87% 17 8038 561 21%
c - 58.48 21 24 70 24931 745558 34390 87% 17 8038 561 21%
c 
c  seconds  reductions        redundant  irredundant
c         MB      restarts           trail     variables
c          level       conflicts         glue      remaining
c 
c p 60.32 21 23 70 24931 765015 50484 87% 17 8038 561 21%
c - 60.56 21 23 71 24931 766860 34193 87% 17 8038 561 21%
c I 61.92 21 23 71 24931 780078 43252 87% 17 8038 561 21%
c - 62.67 21 24 72 24931 788462 34240 87% 17 8038 561 21%
c - 64.88 18 26 73 24935 810365 36765 87% 18 8038 561 21%
c B 65.81 18 26 73 24940 820079 44716 87% 18 8038 561 21%
c - 67.02 16 25 74 24946 832567 33674 87% 18 8038 561 21%
c p 69.29 16 24 74 24956 855016 50628 87% 18 8038 561 21%
c - 69.35 16 24 75 24956 855068 33496 87% 18 8038 561 21%
c W 70.05 16 24 75 24960 861080 37993 87% 18 8038 561 21%
c - 71.85 19 24 76 24962 877869 34008 87% 17 8038 561 21%
c - 74.00 19 23 77 24969 900969 34700 87% 17 8038 561 21%
c s 74.07 19 23 77 24969 900969 34614 87% 17 8038 561 21%
c w 74.19 19 23 77 24969 900969 34598 87% 17 8038 561 21%
c O 74.41 19 23 77 24971 903082 36242 87% 17 8038 561 21%
c - 76.23 19 23 78 24979 924369 36160 86% 17 8038 561 21%
c B 78.33 19 22 78 24991 946084 53513 86% 17 8038 561 21%
c - 78.59 22 22 79 24992 948069 36298 86% 17 8038 561 21%
c p 78.79 22 22 79 24992 950020 38040 86% 17 8038 561 21%
c - 80.83 22 22 80 24993 972069 35811 86% 17 8038 561 21%
c 
c  seconds  reductions        redundant  irredundant
c         MB      restarts           trail     variables
c          level       conflicts         glue      remaining
c 
c W 83.06 22 21 80 24994 990088 50166 86% 16 8038 561 21%
c - 84.02 22 21 81 24994 996370 36707 86% 16 8038 561 21%
c - 86.37 22 21 82 25004 1020970 37131 87% 16 8038 561 21%
c ] 86.57 22 21 82 25006 1023014 38526 87% 16 8038 561 21%
c { 86.57 22 18 82 25006 1023014 38526 80% 10 8038 561 21%
c # 87.52 22 18 82 25883 1035090 49272 80% 10 8038 561 21%
c - 88.53 22 18 83 26700 1045870 40505 80% 10 8038 561 21%
c p 88.89 22 18 83 26864 1050021 44173 80% 10 8038 561 21%
c - 90.84 22 18 84 28247 1071070 43496 81% 10 8038 561 21%
c B 91.79 22 18 84 28955 1081092 52594 81% 10 8038 561 21%
c - 93.38 22 17 85 29926 1096572 45489 80% 10 8038 561 21%
c - 96.43 22 18 86 31920 1122373 47439 80% 10 8038 561 21%
c W 97.40 22 18 86 32560 1128093 52737 80% 10 8038 561 21%
c - 99.66 22 18 87 33798 1148473 49131 80% 10 8038 561 21%
c p 100.32 22 17 87 34194 1155022 54799 80% 10 8038 561 21%
c - 102.57 22 17 88 35541 1174873 49245 80% 10 8038 561 21%
c F 102.68 22 17 88 35621 1176095 50269 80% 10 8038 561 21%
c - 105.82 23 17 89 37468 1201574 50049 81% 10 8038 561 21%
c B 109.11 23 18 89 39752 1225098 71349 81% 10 8038 561 21%
c - 109.57 24 18 90 39999 1228575 51492 81% 10 8038 561 21%
c 
c  seconds   reductions         redundant  irredundant
c          MB      restarts            trail     variables
c           level        conflicts         glue      remaining
c 
c - 112.53 24 17 91 41764 1255876 51411 81% 10 8038 561 21%
c p 113.46 24 17 91 42498 1265022 59598 81% 10 8038 561 21%
c W 114.96 24 17 91 43268 1275099 68340 81% 10 8038 561 21%
c - 115.84 24 17 92 43560 1283477 52121 82% 10 8038 561 21%
c - 119.09 24 17 93 45084 1311378 52899 82% 10 8038 561 21%
c # 120.73 24 17 93 46020 1326100 65568 82% 10 8038 561 21%
c - 122.31 26 17 94 46808 1339579 53789 82% 10 8038 561 21%
c - 125.68 30 17 95 48610 1368079 54656 82% 10 8038 561 21%
c s 125.84 30 17 95 48610 1368079 54419 82% 10 8038 561 21%
c w 126.00 30 17 95 48610 1368079 54393 82% 10 8038 561 21%
c B 127.23 30 17 95 49428 1378101 63242 82% 10 8038 561 21%
c p 127.51 30 17 95 49586 1380024 64984 82% 10 8038 561 21%
c - 129.46 30 17 96 50527 1396880 56087 82% 10 8038 561 21%
c - 133.03 30 17 97 52262 1425980 56444 81% 10 8038 561 21%
c W 133.82 30 17 97 52518 1431102 60832 81% 10 8038 561 21%
c - 137.09 31 17 98 54155 1455380 58028 81% 10 8038 561 21%
c - 140.86 31 17 99 56161 1485080 59059 81% 10 8038 561 21%
c F 140.86 31 17 99 56161 1485103 59082 81% 10 8038 561 21%
c p 142.71 31 17 99 57246 1500024 72325 82% 10 8038 561 21%
c - 144.80 31 17 100 58136 1515080 59294 81% 10 8038 561 21%
c 
c  seconds    reductions         redundant  irredundant
c          MB       restarts            trail     variables
c           level         conflicts         glue      remaining
c 
c B 147.79 31 17 100 59406 1540105 80475 82% 10 8038 561 21%
c - 148.68 31 17 101 59838 1545382 59572 81% 10 8038 561 21%
c - 152.53 31 17 102 61770 1575984 60873 82% 10 8038 561 21%
c 
c caught signal 15 (SIGTERM)
c 
c --- [ result ] -------------------------------------------------------------
c 
c UNKNOWN
c 
c --- [ run-time profiling ] -------------------------------------------------
c 
c process time taken by individual solving procedures
c (percentage relative to process time for solving)
c 
c       152.65   98.62% search
c        91.04   58.82% unstable
c        59.03   38.13% stable
c         2.58    1.67% walk
c         2.13    1.38% simplify
c         0.74    0.48% subsume
c         0.55    0.35% vivify
c         0.36    0.23% probe
c         0.14    0.09% ternary
c         0.08    0.05% elim
c         0.00    0.00% parse
c         0.00    0.00% lucky
c   =================================
c       154.78  100.00% solve
c 
c last line shows process time for solving
c (percentage relative to total process time)
c 
c --- [ statistics ] ---------------------------------------------------------
c 
c chronological:            314149        19.70 %  of conflicts
c conflicts:               1594769     10303.44    per second
c decisions:               2837221     18330.64    per second
c eliminated:                 2051        76.19 %  of all variables
c fixed:                        80         2.97 %  of all variables
c learned:                 1565148        98.14 %  per conflict
c learned_lits:           59276522       100.00 %  learned literals
c minimized:                     0         0.00 %  learned literals
c shrunken:               20611397        34.77 %  learned literals
c minishrunken:            5583952         9.42 %  learned literals
c propagations:          129491944         0.84 M  per second
c reduced:                 1261971        79.13 %  per conflict
c rephased:                     55     28995.80    interval
c restarts:                  62749        25.42    interval
c stabilizing:                   5        42.77 %  of conflicts
c subsumed:                 211553         6.68 %  of all clauses
c strengthened:               8802         0.28 %  of all clauses
c ternary:                      28         0.05 %  of resolved
c vivified:                    164         0.01 %  of all clauses
c walked:                       17     93809.94    interval
c weakened:                   8802         2.90    average size
c 
c seconds are measured in process time for solving
c 
c --- [ resources ] ----------------------------------------------------------
c 
c total process time since initialization:       154.79    seconds
c total real time since initialization:          154.81    seconds
c maximum resident set size of process:           30.84    MB
c 
c raising signal 15 (SIGTERM)
